NAME : XML100_1335_16
DIMENSION : 101
NB_CLUSTERS : 10
CLUSTERING_ALG : DBSCAN
CLUSTERING_PARAMS : eps(106), minSamples(3)
CLUSTERS
1 0
2 1 6 7 14 17 19 22 25 27 38 41 49 51 55 67 68 69 79 83 86 87 91 94 97 99
3 3 9 11 21 29 32 35 39 40 42 43 44 50 53 58 62 63 65 76 77 80 92 93 95 98
4 4 46 54 70
5 5 31 34 36 47 57 64 74 96
6 2 8 15 16 24 56 60 71 73 88 89
7 10 12 18 20 45 48 61 72 81 84
8 13 30 33
9 26 28 37 59 66 90 100
10 23 52 75 78 82 85
EOF